369436 13144.4
27913.6 316160
13088.3 383995
145680 202462
344358 36541.6
144498 203658
141189 229376
290893 58483.2
280643 88081.4
13881.3 363892
153214 199027
76937.2 308252
21579.6 358693
136526 233267
194693 158360
329820 42461.9
337454 42011.8
63536.2 313190
197303 158200
238295 139526
325321 52313.5
89612.3 278236
22003.5 336153
109959 256792
251156 109786
288029 76368.7
246408 112327
211065 151444
329124 50361
239035 132225
176345 183269
100274 264216
245924 113845
122793 247006
77900.8 282239
263806 99361
274694 97063.5
273377 98940.1
90812.2 272326
186477 176220
225679 143285
17013.7 362104
286420 83266.8
172437 196748
133648 239542
257238 108434
132129 245788
189747 172879
239966 123847
347923 21390.4
259440 104354
120277 248344
307948 57709.5
141623 227553
76695.8 308717
87503.7 281243
132280 243575
87714.8 280105
